c ---- [ banner ] ------------------------------------------------------------
c
c KISSAT SAT Solver
c Copyright (c) 2019-2021 Armin Biere JKU Linz
c 
c Version 2.0.1 02cd69626a53e93e09286b1978ccb5d6bec58b8e
c Apple clang version 13.1.6 (clang-1316.0.21.2) -W -Wall -O3 -DNDEBUG
c Thu Mar 31 15:34:51 EDT 2022 Darwin Randals-Macbook-Pro.local 21.2.0 arm64
c
c ---- [ proving ] -----------------------------------------------------------
c
c opened and writing proof to DRAT file:
c
c   chew-32-123458.drat
c
c ---- [ parsing ] -----------------------------------------------------------
c
c opened and reading DIMACS file:
c
c   chew-32-123458.cnf
c
c parsed 'p cnf 90 240' header
c closing input after reading 2941 bytes (3 KB)
c finished parsing after 0.00 seconds
c
c ---- [ options ] -----------------------------------------------------------
c
c --stable=0                       (different from default '1')
c
c ---- [ solving ] -----------------------------------------------------------
c
c  seconds switched rate      trail  variables
c         MB reductions conflicts glue   remaining
c          level restarts redundant irredundant
c
c *  0.00  0 0 0 0  0 0   0   0 0% 0 240 90 99%
c {  0.00  0 0 0 0  0 0   0   0 0% 0 240 90 99%
c -  0.00  0 27 0 1  0 1 301  41 96% 13 240 90 99%
c -  0.01  0 25 0 2  3 1 1303 148 78% 11 240 90 99%
c -  0.01  0 24 0 3  3 1 2719 448 73% 9 240 90 99%
c u  0.01  0 24 0 3  3 1 2719 437 73% 9 240 90 99%
c e  0.02  0 24 0 3 34 2 2875 514 73% 9 216 59 65%
c e  0.02  0 24 0 3 34 2 2875 514 73% 9 216 56 62%
c -  0.02  0 23 0 4 104 2 4454 341 74% 9 216 56 62%
c u  0.03  0 23 0 4 104 2 4577 390 74% 9 216 56 62%
c ^  0.03  0 22 0 4 104 2 5647 914 75% 9 216 56 62%
c -  0.04  0 22 0 5 310 3 6454 645 72% 9 216 56 62%
c -  0.05  0 21 0 6 898 4 8690 739 67% 10 216 56 62%
c -  0.06  0 21 0 7 898 3 11139 1152 67% 9 216 56 62%
c ^  0.06  0 20 0 7 898 3 11655 1396 67% 9 216 56 62%
c -  0.07  0 20 0 8 1053 3 13786 1436 64% 9 216 56 62%
c -  0.09  0 20 0 9 1855 4 16614 1139 61% 9 216 56 62%
c -  0.11  0 19 0 10 2208 4 19614 1025 61% 10 216 56 62%
c ^  0.12  0 19 0 10 2208 4 21332 1773 60% 9 216 56 62%
c -  0.12  0 19 0 11 2208 3 22776 1468 60% 9 216 56 62%
c
c  seconds  switched    rate          trail  variables
c         MB  reductions  conflicts      glue    remaining
c          level   restarts    redundant irredundant
c
c u  0.13  0 19 0 11 2208 3 24249 2079 59% 9 216 56 62%
c -  0.14  0 19 0 12 2570 3 26095 1555 59% 9 216 56 62%
c -  0.16  0 19 0 13 2570 3 29559 1559 60% 9 216 56 62%
c -  0.19  0 19 0 14 3588 4 33165 1312 59% 10 216 56 62%
c e  0.19  0 19 0 14 3711 4 35085 2095 60% 9 232 52 57%
c ^  0.19  0 19 0 14 3711 4 35085 2095 60% 9 232 52 57%
c -  0.21  0 19 0 15 3859 4 36909 1088 59% 9 232 52 57%
c -  0.23  0 19 0 16 4968 4 40782 1201 59% 10 232 52 57%
c -  0.25  0 18 0 17 5297 4 44784 1596 58% 10 232 52 57%
c u  0.25  0 18 0 17 5297 4 45765 1924 58% 9 232 52 57%
c v  0.25  0 18 0 17 5297 4 45765 1917 58% 9 232 52 57%
c -  0.27  0 18 0 18 5297 4 48908 2005 58% 9 232 52 57%
c -  0.29  0 18 0 19 5297 3 53150 2404 57% 9 232 52 57%
c ^  0.30  0 17 0 19 5297 3 53748 2684 57% 9 232 52 57%
c -  0.32  0 17 0 20 5297 3 57509 2606 56% 9 232 52 57%
c -  0.34  0 17 0 21 5297 3 61981 2841 56% 9 232 52 57%
c u  0.36  0 17 0 21 5915 3 64769 4047 56% 9 232 52 57%
c v  0.36  0 17 0 21 5915 3 64769 4044 56% 9 232 52 57%
c -  0.37  0 17 0 22 6381 3 66563 2534 55% 9 232 52 57%
c -  0.41  0 17 0 23 7665 4 71254 2081 55% 9 232 52 57%
c
c  seconds  switched    rate          trail  variables
c         MB  reductions  conflicts      glue    remaining
c          level   restarts    redundant irredundant
c
c u  0.43  0 17 0 23 8520 4 75624 3873 55% 9 232 52 57%
c v  0.43  0 17 0 23 8520 4 75637 3860 55% 9 232 52 57%
c -  0.44  0 17 0 24 8595 4 76050 1983 55% 9 232 52 57%
c e  0.44  0 17 0 24 8788 4 77326 2584 55% 9 392 42 46%
c !  0.45  0 17 0 24 8788 4 77326 2584 55% 9 392 42 46%
c -  0.47  0 17 0 25 9807 4 80950 346 56% 10 392 42 46%
c -  0.49  0 18 0 26 10775 4 85951 569 57% 10 392 42 46%
c u  0.50  0 18 0 26 11047 4 87399 1083 57% 10 392 42 46%
c -  0.52  0 18 0 27 11747 4 91051 695 57% 10 392 42 46%
c -  0.55  0 17 0 28 12520 4 96247 696 57% 10 392 42 46%
c -  0.58  0 17 0 29 12781 4 101539 665 58% 10 392 42 46%
c u  0.59  0 17 0 29 12967 4 102597 987 58% 10 392 42 46%
c -  0.61  0 17 0 30 13763 4 106926 766 58% 11 392 42 46%
c -  0.64  0 18 0 31 14757 4 112406 790 59% 11 392 42 46%
c -  0.67  0 18 0 32 15762 4 117976 814 59% 11 392 42 46%
c u  0.67  0 18 0 32 15931 4 118915 1156 60% 11 392 42 46%
c -  0.70  0 18 0 33 16790 4 123634 822 60% 11 392 42 46%
c -  0.73  0 18 0 34 17843 4 129379 847 60% 11 392 42 46%
c -  0.76  0 18 0 35 18324 4 135209 1173 60% 11 392 42 46%
c u  0.77  0 18 0 35 18324 4 136446 1320 61% 11 392 42 46%
c
c  seconds  switched     rate           trail   variables
c         MB  reductions   conflicts        glue    remaining
c          level   restarts      redundant  irredundant
c
c -  0.79  0 18 0 36 18324 4 141125 1222 62% 11 392 42 46%
c -  0.82  0 18 0 37 18681 3 147125 1115 63% 11 392 42 46%
c -  0.85  0 18 0 38 18766 3 153209 2274 64% 11 392 42 46%
c u  0.86  0 18 0 38 18766 3 155159 2842 64% 11 392 42 46%
c v  0.86  0 18 0 38 18766 3 155162 2833 64% 11 392 42 46%
c -  0.88  0 18 0 39 19532 3 159373 2522 64% 11 392 42 46%
c -  0.92  0 18 0 40 20094 3 165617 2013 64% 11 392 42 46%
c -  0.96  0 18 0 41 20094 3 171941 1507 64% 11 392 42 46%
c u  0.98  0 18 0 41 20094 3 175073 2572 64% 11 392 42 46%
c v  0.98  0 18 0 41 20094 3 175073 2571 64% 11 392 42 46%
c -  1.01  0 17 0 42 20094 3 178345 1733 64% 11 392 42 46%
c -  1.05  0 17 0 43 20094 3 184827 1784 65% 11 392 42 46%
c -  1.08  0 17 0 44 20094 3 191384 1712 66% 11 392 42 46%
c u  1.11  0 17 0 44 20094 3 196163 3153 66% 11 392 42 46%
c v  1.11  0 17 0 44 20094 3 196164 3152 66% 11 392 42 46%
c -  1.12  0 17 0 45 20392 3 198017 1544 66% 11 392 42 46%
c -  1.16  0 17 0 46 21416 3 204725 1729 66% 11 392 42 46%
c -  1.20  0 17 0 47 21416 3 211507 2365 67% 11 392 42 46%
c -  1.24  0 17 0 48 21416 3 218362 2822 67% 11 392 42 46%
c u  1.24  0 17 0 48 21416 2 218587 2517 67% 11 392 42 46%
c
c  seconds  switched     rate           trail   variables
c         MB  reductions   conflicts        glue    remaining
c          level   restarts      redundant  irredundant
c
c v  1.24  0 17 0 48 21416 2 218590 2512 67% 11 392 42 46%
c -  1.28  0 17 0 49 22636 3 225291 2124 67% 11 392 42 46%
c -  1.32  0 17 0 50 23251 2 232291 1584 66% 11 392 42 46%
c -  1.36  0 16 0 51 23256 2 239362 1397 66% 11 392 42 46%
c u  1.38  0 16 0 51 23256 2 242176 2010 66% 11 392 42 46%
c v  1.38  0 16 0 51 23256 2 242176 2009 66% 11 392 42 46%
c -  1.41  0 16 0 52 23256 2 246504 1661 66% 11 392 42 46%
c -  1.46  0 16 0 53 23256 2 253716 2193 67% 10 392 42 46%
c -  1.51  0 16 0 54 23262 2 260996 2429 67% 10 392 42 46%
c u  1.55  0 16 0 54 23274 2 267193 5040 68% 10 392 42 46%
c v  1.55  0 16 0 54 23274 2 267193 5035 68% 10 392 42 46%
c -  1.57  0 16 0 55 23274 2 268344 2888 68% 10 392 42 46%
c -  1.61  0 15 0 56 23301 2 275761 3197 68% 10 392 42 46%
c -  1.66  0 15 0 57 23469 2 283244 2734 68% 10 392 42 46%
c -  1.71  0 15 0 58 23469 2 290793 2318 69% 10 392 42 46%
c u  1.73  0 15 0 58 23469 2 293375 1750 69% 10 392 42 46%
c v  1.73  0 15 0 58 23469 2 293375 1745 69% 10 392 42 46%
c -  1.77  0 15 0 59 23469 2 298408 1631 69% 10 392 42 46%
c -  1.81  0 15 0 60 23501 2 306089 2331 69% 9 392 42 46%
c -  1.86  0 15 0 61 23521 2 313835 2421 69% 9 392 42 46%
c
c  seconds  switched     rate           trail  variables
c         MB  reductions   conflicts       glue    remaining
c          level   restarts      redundant irredundant
c
c u  1.91  0 14 0 61 23544 2 320746 1646 70% 9 392 42 46%
c v  1.91  0 14 0 61 23544 2 320746 1628 70% 9 392 42 46%
c -  1.91  0 14 0 62 23544 2 321646 1160 70% 9 392 42 46%
c -  1.96  0 14 0 63 23579 2 329521 1802 70% 9 392 42 46%
c -  2.01  0 14 0 64 23579 2 337458 2182 70% 9 392 42 46%
c -  2.06  0 14 0 65 23594 2 345458 2858 70% 9 392 42 46%
c u  2.09  0 14 0 65 23594 2 349535 1432 70% 9 392 42 46%
c v  2.09  0 14 0 65 23594 2 349559 1398 70% 9 392 42 46%
c w  2.09  0 14 0 65 23594 2 349559 1398 70% 9 392 42 46%
c 2  2.09  0 14 0 65 23594 2 349559 1398 70% 9 385 42 46%
c e  2.09  0 14 0 65 23594 2 349559 1398 70% 9 377 40 44%
c -  2.11  0 14 0 66 23594 2 353520 2453 70% 9 377 40 44%
c i  2.11  0 14 0 66 23594 2 353662 2462 70% 9 377 39 43%
c -  2.17  0 14 0 67 24945 2 361646 1432 70% 9 376 39 43%
c -  2.22  0 14 0 68 26376 2 369832 1866 70% 9 376 39 43%
c -  2.27  0 14 0 69 27827 2 378080 1981 69% 9 376 39 43%
c u  2.28  0 15 0 69 28039 2 379353 2532 69% 9 352 39 43%
c -  2.33  0 15 0 70 29328 2 386386 2064 69% 10 352 39 43%
c -  2.39  0 15 0 71 30872 2 394754 2212 68% 10 352 39 43%
c -  2.45  0 15 0 72 32510 2 403181 2340 68% 10 352 39 43%
c
c  seconds  switched     rate           trail   variables
c         MB  reductions   conflicts        glue    remaining
c          level   restarts      redundant  irredundant
c
c u  2.49  0 15 0 72 33812 2 409375 3587 67% 10 352 39 43%
c v  2.50  0 15 0 72 33812 2 409376 3586 67% 10 352 39 43%
c -  2.52  0 15 0 73 34288 2 411666 1970 67% 10 352 39 43%
c -  2.57  0 15 0 74 35642 2 420213 2618 66% 10 352 39 43%
c -  2.63  0 15 0 75 36512 2 428815 2610 65% 10 352 39 43%
c -  2.69  0 14 0 76 36579 2 437476 2057 65% 10 352 39 43%
c u  2.72  0 14 0 76 36659 2 440656 2009 65% 10 352 39 43%
c v  2.72  0 14 0 76 36659 2 440661 1990 65% 10 352 39 43%
c -  2.76  0 14 0 77 36659 2 446193 1647 65% 10 352 39 43%
c -  2.82  0 14 0 78 36659 2 454968 2261 65% 10 352 39 43%
c -  2.87  0 14 0 79 36944 2 463800 3464 65% 10 352 39 43%
c -  2.94  0 14 0 80 36944 2 472689 4857 65% 10 352 39 43%
c u  2.95  0 14 0 80 36944 2 473345 4921 65% 10 352 39 43%
c v  2.95  0 14 0 80 36944 2 473345 4907 65% 10 352 39 43%
c -  3.01  0 14 0 81 37282 2 481634 4303 64% 10 352 39 43%
c -  3.08  0 13 0 82 37282 2 490634 4536 64% 10 352 39 43%
c -  3.16  0 13 0 83 37282 2 499690 5933 64% 9 352 39 43%
c u  3.25  0 13 0 83 37282 2 508589 4721 64% 9 352 39 43%
c v  3.25  0 13 0 83 37282 2 508601 4626 64% 9 352 39 43%
c -  3.26  0 13 0 84 37282 2 508801 3224 64% 9 352 39 43%
c
c  seconds  switched     rate           trail  variables
c         MB  reductions   conflicts       glue    remaining
c          level   restarts      redundant irredundant
c
c i  3.30  0 13 0 84 37293 2 514692 5316 64% 9 352 38 42%
c -  3.33  0 13 0 85 37293 2 517966 1680 64% 9 352 38 42%
c -  3.39  0 13 0 86 37890 2 527186 2792 64% 9 352 38 42%
c i  3.44  0 12 0 86 37890 2 535453 5461 63% 9 352 37 41%
c -  3.45  0 12 0 87 37890 2 536459 1851 63% 9 288 37 41%
c u  3.49  0 12 0 87 37890 2 543854 4812 63% 9 288 37 41%
c v  3.49  0 12 0 87 37890 2 543854 4810 63% 9 288 37 41%
c -  3.51  0 12 0 88 37890 2 545786 3808 63% 9 288 37 41%
c i  3.52  0 12 0 88 37890 2 547685 4009 63% 9 288 36 40%
c i  3.56  0 12 0 88 37890 2 554943 6499 62% 9 288 35 38%
c -  3.57  0 12 0 89 37890 2 555166 3492 62% 8 288 35 38%
c i  3.57  0 12 0 89 37890 2 555934 3578 62% 8 288 34 37%
c i  3.57  0 12 0 89 37890 2 556536 3643 62% 8 288 33 36%
c i  3.58  0 12 0 89 37890 2 556885 3721 62% 8 288 32 35%
c i  3.58  0 12 0 89 37890 2 557087 3703 62% 8 288 31 34%
c i  3.58  0 12 0 89 37890 2 557182 3703 62% 8 288 30 33%
c i  3.58  0 12 0 89 37890 2 557240 3697 62% 8 288 29 32%
c i  3.58  0 12 0 89 37890 2 557268 3692 62% 8 288 28 31%
c i  3.58  0 12 0 89 37890 2 557272 3693 62% 8 288 27 30%
c i  3.58  0 12 0 89 37890 2 557276 3694 62% 8 288 26 29%
c
c  seconds  switched     rate           trail  variables
c         MB  reductions   conflicts       glue    remaining
c          level   restarts      redundant irredundant
c
c }  3.58  0 12 0 89 37890 2 557280 3694 62% 8 288 22 24%
c 0  3.58  0 12 0 89 37890 2 557280 3694 62% 8 288 22 24%
c
c ---- [ result ] ------------------------------------------------------------
c
s UNSATISFIABLE
c
c ---- [ profiling ] ---------------------------------------------------------
c
c           3.42   95.72 %  search
c           3.42   95.72 %  focused
c           0.35    9.78 %  reduce
c           0.15    4.27 %  simplify
c           0.14    3.96 %  probe
c           0.11    3.01 %  vivify
c           0.02    0.56 %  sweep
c           0.01    0.31 %  eliminate
c           0.01    0.30 %  substitute
c           0.00    0.03 %  transitive
c           0.00    0.01 %  failed
c           0.00    0.01 %  ternary
c           0.00    0.01 %  subsume
c           0.00    0.01 %  backbone
c           0.00    0.00 %  parse
c =============================================
c           3.58  100.00 %  total
c
c ---- [ statistics ] --------------------------------------------------------
c
c clauses_learned:                     417317               75 %  conflicts
c conflicts:                           557280           155709.65 per second
c decisions:                           985910                1.77 per conflict
c forward_strengthened:                    56                4 %  strengthened
c kitten_conflicts:                      4409                0.83 per solved
c kitten_decisions:                    124410               23.50 per solved
c kitten_propagations:                 175059               33.07 per solved
c kitten_sat:                            5204               98 %  solved
c kitten_solved:                         5293 
c kitten_ticks:                       1162314                6.64 per propagation
c kitten_unknown:                          36                1 %  solved
c kitten_unsat:                            53                1 %  solved
c literals_bumped:                   11345890               27.19 per clause
c literals_deduced:                   6637189               15.90 per clause
c literals_learned:                   5107122               12.24 per clause
c literals_minimized:                       0                0 %  deduced
c literals_minimize_shrunken:           69962                5 %  shrunken
c literals_shrunken:                  1530082               23 %  deduced
c propagations:                       3306230           923794    per second
c reductions:                              89             6262    interval
c restarts:                             37890               14.71 interval
c restarts_reused_trails:               29117               77 %  restarts
c strengthened:                          1535                2 %  checks
c subsumption_checks:                   78140 
c subsumed:                            239043              306 %  checks
c sweep:                                   34            16391    interval
c sweep_completed:                          9                4    sweeps
c sweep_equivalences:                       0                0    variables
c sweep_sat:                             5204               99 %  sweep_solved
c sweep_solved:                          5245               99 %  kitten_solved
c sweep_units:                              0                0 %  variables
c sweep_unsat:                              5                0 %  sweep_solved
c sweep_variables:                        352              387 %  variables
c
c ---- [ proof ] -------------------------------------------------------------
c
c proof_added:                         515028               50 %  per line
c proof_bytes:                       47254741               45 MB 
c proof_deleted:                       511267               50 %  per line
c
c ---- [ resources ] ---------------------------------------------------------
c
c maximum-resident-set-size:       7096762368 bytes       6768 MB
c process-time:                             4s               3.58 seconds
c
c ---- [ shutting down ] -----------------------------------------------------
c
c exit 20
-rw-r--r--  1 bryant  staff  47254741 Mar 11 02:57 chew-32-123458.drat
c parsing input formula with 90 variables and 240 clauses
c finished parsing
c detected empty clause; start verification via backward checking
c 240 of 240 clauses in core                            
c 346559 of 515029 lemmas in core using 3589903 resolution steps
c 0 RAT lemmas in core; 158 redundant literals in core lemmas
s VERIFIED
c verification time: 2.564 seconds
